s td 14 47 60
b 1 1 2 3 4 5 6 8 9 10 11 13 14 15 17 20 21 22 24 27 28 29 31 32 34 35 36 37 38 40 41 43 44 45 46 47 48 49 50 51 53 54 55 56 57 58 59 60
b 2 2 3 4 5 6 8 9 10 11 13 14 15 17 20 21 22 24 27 28 29 31 32 34 35 36 37 38 40 41 43 44 45 46 47 48 49 50 51 52 54 55 56 57 58 59 60
b 3 2 3 4 6 8 9 10 13 14 15 16 17 20 21 22 24 27 28 29 31 32 34 35 36 37 38 40 41 43 44 45 46 47 50 51 52 54 55 56 57 58 59 60
b 4 2 3 4 6 8 9 10 13 14 16 17 19 20 21 22 24 27 28 31 32 34 35 36 37 38 40 41 43 44 45 47 50 51 54 55 56 57 58
b 5 2 3 4 6 7 8 9 14 17 19 20 21 22 24 28 32 35 37 40 41 43 44 47 51 54 56 57 58
b 6 2 3 4 5 6 8 10 13 14 17 20 21 27 29 35 36 38 41 42 43 44 46 48 50 52 58
b 7 1 2 3 4 5 6 8 9 10 11 13 14 15 17 18 20 21 22 24 27 28 29 31 32 34 35 36 37 38 40 41 43 44 45 46 47 48 49 50 51 53 55 56 57 58 59 60
b 8 1 3 4 5 6 8 9 10 11 12 13 14 15 17 18 20 21 22 24 27 28 29 31 32 35 36 37 38 40 41 43 44 45 46 47 48 49 50 51 53 55 56 57 58 60
b 9 1 3 4 5 6 8 10 11 12 13 14 17 18 21 22 24 27 28 29 30 31 32 36 38 40 41 43 44 45 46 47 48 50 51 53 55 56 57 58 60
b 10 1 4 5 6 8 10 13 18 21 22 23 24 27 28 29 30 32 38 40 41 44 45 46 47 51 53 55 56 57 58 60
b 11 2 3 4 5 6 9 10 11 13 14 15 18 20 22 27 28 29 31 32 34 35 36 37 39 41 43 45 46 47 48 53 56 59 60
b 12 4 5 10 11 13 14 18 25 31 35 36 37 39 41 43 45 47 48 56 59
b 13 1 2 3 6 9 11 13 14 18 22 24 26 32 35 36 40 43 48 50 53 55 56 57 58 59
b 14 2 3 9 11 13 14 15 17 18 20 21 22 27 28 29 31 32 33 34 35 36 40 43 46 48 49 55 56 57 58 60
1 2
1 7
2 3
2 6
3 4
4 5
7 8
7 11
7 13
7 14
8 9
9 10
11 12
